27 35
45 36
68 38
28 53
45 78
85 72
94 37
74 44
59 92
10 21
21 78
24 39
26 80
41 49
59 81
9 36
55 89
89 54
80 67
88 1
12 62
86 81
11 54
44 68
53 97
33 37
55 34
83 29
1 8
60 1
11 66
24 35
73 66
39 11
49 29
53 83
22 5
36 82
17 64
49 35
8 75
44 44
68 44
65 67
79 26
43 48
1 73
99 48
74 3
93 10
50 84
42 49
11 75
26 58
33 98
63 33
68 41
42 3
100 10
16 38
